c Circuit-CNF generated by TG-PRO v1.0 (c) Huan Chen and Joao Marques-Silva
p cnf 524 1470
-1 -2 0
-1 -3 0
1 2 3 0
-4 -5 0
-4 -6 0
4 5 6 0
-7 -8 0
-7 -9 0
7 8 9 0
-10 -11 0
-10 -12 0
10 11 12 0
-13 -2 0
-13 -14 0
13 2 14 0
-15 -2 0
-15 -16 0
15 2 16 0
-17 -5 0
-17 -18 0
17 5 18 0
-19 -20 0
-19 -21 0
19 20 21 0
-22 -5 0
-22 -23 0
22 5 23 0
-24 -25 0
-24 -26 0
24 25 26 0
-27 -28 0
-27 -29 0
27 28 29 0
-30 -2 0
-30 -31 0
30 2 31 0
-32 -33 0
-32 -34 0
32 33 34 0
35 36 0
35 37 0
-35 -36 -37 0
-38 -39 0
-38 -40 0
38 39 40 0
41 42 0
41 43 0
-41 -42 -43 0
-44 -45 0
-44 -46 0
44 45 46 0
-47 -48 0
-47 -49 0
47 48 49 0
50 51 0
50 52 0
-50 -51 -52 0
-53 54 0
-53 55 0
53 -54 -55 0
-56 57 0
-56 58 0
56 -57 -58 0
-59 60 0
-59 61 0
59 -60 -61 0
-62 63 0
-62 64 0
62 -63 -64 0
-65 66 0
-65 67 0
65 -66 -67 0
68 69 0
-68 -69 0
70 71 0
-70 -71 0
72 73 0
-72 -73 0
74 75 0
-74 -75 0
76 77 0
-76 -77 0
78 79 0
-78 -79 0
80 81 0
-80 -81 0
82 83 0
-82 -83 0
84 85 0
-84 -85 0
86 87 0
-86 -87 0
88 89 0
-88 -89 0
90 91 0
-90 -91 0
92 93 0
-92 -93 0
94 95 0
-94 -95 0
96 97 0
-96 -97 0
98 99 0
-98 -99 0
100 101 0
-100 -101 0
5 2 0
-5 -2 0
55 102 0
-55 -102 0
58 102 0
-58 -102 0
61 102 0
-61 -102 0
64 102 0
-64 -102 0
67 102 0
-67 -102 0
103 104 0
-103 -104 0
105 106 0
-105 -106 0
107 104 0
-107 -104 0
108 107 0
-108 -107 0
109 95 0
-109 -95 0
110 109 0
-110 -109 0
111 100 0
-111 -100 0
112 111 0
-112 -111 0
113 104 0
-113 -104 0
114 113 0
-114 -113 0
-115 97 0
-115 75 0
115 -97 -75 0
-116 117 0
-116 2 0
116 -117 -2 0
-118 71 0
-118 2 0
118 -71 -2 0
-119 101 0
-119 2 0
119 -101 -2 0
-120 117 0
-120 2 0
120 -117 -2 0
-121 71 0
-121 2 0
121 -71 -2 0
-122 101 0
-122 2 0
122 -101 -2 0
-123 101 0
-123 2 0
123 -101 -2 0
-124 101 0
-124 2 0
124 -101 -2 0
-125 126 0
-125 2 0
125 -126 -2 0
-127 128 0
-127 2 0
127 -128 -2 0
-129 130 0
-129 106 0
129 -130 -106 0
-131 132 0
-131 2 0
131 -132 -2 0
-133 134 0
-133 2 0
133 -134 -2 0
-135 86 0
-135 88 0
135 -86 -88 0
-136 88 0
-136 90 0
136 -88 -90 0
-137 106 0
-137 96 0
137 -106 -96 0
-138 96 0
-138 94 0
138 -96 -94 0
-139 97 0
-139 98 0
139 -97 -98 0
-140 98 0
-140 2 0
140 -98 -2 0
-141 100 0
-141 104 0
141 -100 -104 0
-142 2 0
-142 100 0
142 -2 -100 0
-143 144 0
-143 100 0
143 -144 -100 0
-145 2 0
-145 100 0
145 -2 -100 0
-146 147 0
-146 100 0
146 -147 -100 0
-148 94 0
-148 99 0
148 -94 -99 0
-149 150 0
-149 2 0
149 -150 -2 0
-151 96 0
-151 100 0
151 -96 -100 0
-152 -2 0
-152 -101 0
152 2 101 0
-153 154 0
-153 152 0
153 -154 -152 0
-155 156 0
-155 5 0
155 -156 -5 0
-157 158 0
-157 5 0
157 -158 -5 0
-159 160 0
-159 5 0
159 -160 -5 0
-161 89 0
-161 5 0
161 -89 -5 0
-162 87 0
-162 5 0
162 -87 -5 0
-163 164 0
-163 5 0
163 -164 -5 0
-165 96 0
-165 5 0
165 -96 -5 0
-166 167 0
-166 5 0
166 -167 -5 0
-168 5 0
-168 94 0
168 -5 -94 0
-169 170 0
-169 5 0
169 -170 -5 0
-171 96 0
-171 5 0
171 -96 -5 0
-172 173 0
-172 100 0
172 -173 -100 0
-174 175 0
-174 103 0
174 -175 -103 0
-176 103 0
-176 2 0
176 -103 -2 0
-177 178 0
-177 5 0
177 -178 -5 0
-179 180 0
-179 97 0
179 -180 -97 0
-181 104 0
-181 105 0
181 -104 -105 0
-182 95 0
-182 105 0
182 -95 -105 0
-183 105 0
-183 100 0
183 -105 -100 0
-184 105 0
-184 96 0
184 -105 -96 0
-185 -186 0
-185 -97 0
185 186 97 0
-187 188 0
-187 185 0
187 -188 -185 0
-189 -190 0
-189 -96 0
189 190 96 0
-191 192 0
-191 189 0
191 -192 -189 0
193 101 0
193 74 0
-193 -101 -74 0
-194 105 0
-194 193 0
194 -105 -193 0
195 196 0
195 95 0
-195 -196 -95 0
-197 96 0
-197 195 0
197 -96 -195 0
-198 -199 0
-198 -84 0
198 199 84 0
-200 201 0
-200 198 0
200 -201 -198 0
202 203 0
202 96 0
-202 -203 -96 0
-204 205 0
-204 202 0
204 -205 -202 0
-206 -207 0
-206 -94 0
206 207 94 0
-208 -209 0
-208 -106 0
208 209 106 0
-210 -136 0
-210 -135 0
210 136 135 0
-211 212 0
-211 210 0
211 -212 -210 0
-213 -214 0
-213 -119 0
213 214 119 0
-215 103 0
-215 213 0
215 -103 -213 0
-216 -217 0
-216 -122 0
216 217 122 0
-218 103 0
-218 216 0
218 -103 -216 0
-219 -161 0
-219 -162 0
219 161 162 0
-220 221 0
-220 219 0
220 -221 -219 0
-222 -223 0
-222 -124 0
222 223 124 0
-224 225 0
-224 222 0
224 -225 -222 0
-226 -149 0
-226 -165 0
226 149 165 0
-227 99 0
-227 226 0
227 -99 -226 0
-228 -171 0
-228 -151 0
228 171 151 0
-229 230 0
-229 228 0
229 -230 -228 0
231 232 0
231 97 0
-231 -232 -97 0
-233 105 0
-233 231 0
233 -105 -231 0
234 235 0
234 236 0
-234 -235 -236 0
-237 99 0
-237 234 0
237 -99 -234 0
-238 -239 0
-238 -140 0
238 239 140 0
-240 241 0
-240 238 0
240 -241 -238 0
-242 -101 0
-242 -117 0
242 101 117 0
243 244 0
243 245 0
-243 -244 -245 0
-246 247 0
-246 243 0
246 -247 -243 0
-248 -249 0
-248 -184 0
248 249 184 0
-250 251 0
-250 248 0
250 -251 -248 0
252 253 0
252 254 0
-252 -253 -254 0
-255 256 0
-255 252 0
255 -256 -252 0
257 258 0
257 259 0
-257 -258 -259 0
-260 261 0
-260 257 0
260 -261 -257 0
-262 -227 0
-262 -263 0
262 227 263 0
-264 105 0
-264 262 0
264 -105 -262 0
-265 -266 0
-265 -138 0
265 266 138 0
-267 101 0
-267 265 0
267 -101 -265 0
54 -268 0
54 -269 0
-54 268 269 0
57 270 0
57 271 0
-57 -270 -271 0
60 272 0
60 273 0
-60 -272 -273 0
63 274 0
63 275 0
-63 -274 -275 0
66 276 0
66 277 0
-66 -276 -277 0
278 -87 0
278 -89 0
-278 87 89 0
279 -89 0
279 -91 0
-279 89 91 0
280 -87 0
280 -91 0
-280 87 91 0
281 -282 0
281 -71 0
-281 282 71 0
283 -99 0
283 -101 0
-283 99 101 0
284 -77 0
284 -101 0
-284 77 101 0
285 -95 0
285 -2 0
-285 95 2 0
286 -99 0
286 -2 0
-286 99 2 0
287 -288 0
287 -2 0
-287 288 2 0
254 -2 0
254 -77 0
-254 2 77 0
289 -106 0
289 -2 0
-289 106 2 0
290 -291 0
290 -101 0
-290 291 101 0
245 -292 0
245 -97 0
-245 292 97 0
293 -75 0
293 -106 0
-293 75 106 0
203 -294 0
203 -84 0
-203 294 84 0
295 -296 0
295 -2 0
-295 296 2 0
297 -298 0
297 -2 0
-297 298 2 0
299 -300 0
299 -106 0
-299 300 106 0
301 -302 0
301 -2 0
-301 302 2 0
303 -74 0
303 -96 0
-303 74 96 0
304 -75 0
304 -98 0
-304 75 98 0
305 -106 0
305 -100 0
-305 106 100 0
306 -2 0
306 -100 0
-306 2 100 0
259 -5 0
259 -95 0
-259 5 95 0
307 -308 0
307 -5 0
-307 308 5 0
309 -310 0
309 -5 0
-309 310 5 0
311 -101 0
311 -5 0
-311 101 5 0
312 -98 0
312 -5 0
-312 98 5 0
313 -103 0
313 -2 0
-313 103 2 0
314 -103 0
314 -2 0
-314 103 2 0
315 -103 0
315 -97 0
-315 103 97 0
316 -317 0
316 -5 0
-316 317 5 0
244 -318 0
244 -5 0
-244 318 5 0
319 -68 0
319 -105 0
-319 68 105 0
320 2 0
320 101 0
-320 -2 -101 0
37 -321 0
37 -320 0
-37 321 320 0
-322 -323 0
-322 -71 0
322 323 71 0
324 -101 0
324 -322 0
-324 101 322 0
325 326 0
325 97 0
-325 -326 -97 0
-327 -328 0
-327 -92 0
327 328 92 0
329 -330 0
329 -327 0
-329 330 327 0
331 2 0
331 100 0
-331 -2 -100 0
332 -333 0
332 -331 0
-332 333 331 0
334 286 0
334 283 0
-334 -286 -283 0
335 -336 0
335 -334 0
-335 336 334 0
337 338 0
337 85 0
-337 -338 -85 0
339 -340 0
339 -337 0
-339 340 337 0
-341 -5 0
-341 -100 0
341 5 100 0
342 -343 0
342 -341 0
-342 343 341 0
344 5 0
344 100 0
-344 -5 -100 0
36 -345 0
36 -344 0
-36 345 344 0
-346 -97 0
-346 -103 0
346 97 103 0
42 -347 0
42 -346 0
-42 347 346 0
-348 -349 0
-348 -103 0
348 349 103 0
350 -96 0
350 -348 0
-350 96 348 0
-351 -352 0
-351 -103 0
351 352 103 0
353 -96 0
353 -351 0
-353 96 351 0
354 85 0
354 83 0
-354 -85 -83 0
355 108 0
355 110 0
-355 -108 -110 0
356 -357 0
356 -355 0
-356 357 355 0
-358 -359 0
-358 -115 0
358 359 115 0
360 -361 0
360 -358 0
-360 361 358 0
362 363 0
362 99 0
-362 -363 -99 0
364 365 0
364 314 0
-364 -365 -314 0
366 -367 0
366 -364 0
-366 367 364 0
368 315 0
368 304 0
-368 -315 -304 0
369 -370 0
369 -368 0
-369 370 368 0
371 372 0
371 319 0
-371 -372 -319 0
373 -374 0
373 -371 0
-373 374 371 0
-375 -123 0
-375 -103 0
375 123 103 0
376 -377 0
376 -375 0
-376 377 375 0
378 379 0
378 96 0
-378 -379 -96 0
-380 -200 0
-380 -98 0
380 200 98 0
381 -382 0
381 -380 0
-381 382 380 0
-269 -383 0
-269 -384 0
269 383 384 0
385 356 0
385 386 0
-385 -356 -386 0
387 -388 0
387 -385 0
-387 388 385 0
-389 -215 0
-389 -390 0
389 215 390 0
391 -392 0
391 -389 0
-391 392 389 0
-393 -218 0
-393 -394 0
393 218 394 0
395 -396 0
395 -393 0
-395 396 393 0
397 -398 0
397 -376 0
-397 398 376 0
-399 -400 0
-399 -255 0
399 400 255 0
401 -104 0
401 -399 0
-401 104 399 0
-402 -403 0
-402 -404 0
402 403 404 0
405 -104 0
405 -402 0
-405 104 402 0
-406 -407 0
-406 -408 0
406 407 408 0
409 -98 0
409 -406 0
-409 98 406 0
410 411 0
410 74 0
-410 -411 -74 0
49 412 0
49 74 0
-49 -412 -74 0
3 413 0
3 95 0
-3 -413 -95 0
6 414 0
6 95 0
-6 -414 -95 0
9 415 0
9 76 0
-9 -415 -76 0
12 416 0
12 77 0
-12 -416 -77 0
14 417 0
14 103 0
-14 -417 -103 0
16 418 0
16 103 0
-16 -418 -103 0
18 419 0
18 103 0
-18 -419 -103 0
21 420 0
21 99 0
-21 -420 -99 0
23 421 0
23 103 0
-23 -421 -103 0
-422 -106 0
-422 -104 0
422 106 104 0
26 423 0
26 422 0
-26 -423 -422 0
29 424 0
29 95 0
-29 -424 -95 0
31 425 0
31 103 0
-31 -425 -103 0
426 427 0
426 98 0
-426 -427 -98 0
34 428 0
34 429 0
-34 -428 -429 0
430 299 0
430 290 0
-430 -299 -290 0
263 431 0
263 303 0
-263 -431 -303 0
432 433 0
432 97 0
-432 -433 -97 0
-236 -434 0
-236 -84 0
236 434 84 0
435 436 0
435 96 0
-435 -436 -96 0
-437 -94 0
-437 -410 0
437 94 410 0
46 438 0
46 437 0
-46 -438 -437 0
273 439 0
273 430 0
-273 -439 -430 0
-440 -105 0
-440 -74 0
440 105 74 0
52 350 0
52 440 0
-52 -350 -440 0
-441 -105 0
-441 -74 0
441 105 74 0
277 353 0
277 441 0
-277 -353 -441 0
-43 -442 0
-43 -137 0
43 442 137 0
-443 -444 0
-443 -426 0
443 444 426 0
271 445 0
271 443 0
-271 -445 -443 0
-386 -446 0
-386 -182 0
386 446 182 0
-275 -191 0
-275 -224 0
275 191 224 0
-447 -131 0
-447 -143 0
447 131 143 0
-448 -133 0
-448 -146 0
448 133 146 0
-384 -172 0
-384 -129 0
384 172 129 0
-40 -125 0
-40 -177 0
40 125 177 0
-390 -142 0
-390 -447 0
390 142 447 0
-394 -145 0
-394 -448 0
394 145 448 0
-404 -194 0
-404 -432 0
404 194 432 0
-408 -168 0
-408 -435 0
408 168 435 0
8 -2 0
8 -101 0
-8 2 101 0
11 -2 0
11 -101 0
-11 2 101 0
20 -5 0
20 -100 0
-20 5 100 0
449 -2 0
449 -101 0
-449 2 101 0
25 -449 0
25 -97 0
-25 449 97 0
28 -2 0
28 -100 0
-28 2 100 0
450 -2 0
450 -100 0
-450 2 100 0
33 -450 0
33 -97 0
-33 450 97 0
451 -101 0
451 -104 0
-451 101 104 0
39 -451 0
39 -70 0
-39 451 70 0
452 -2 0
452 -100 0
-452 2 100 0
45 -452 0
45 -96 0
-45 452 96 0
48 -237 0
48 -5 0
-48 237 5 0
-453 369 0
-453 342 0
453 -369 -342 0
-51 453 0
-51 360 0
51 -453 -360 0
-126 106 0
-126 97 0
126 -106 -97 0
-128 106 0
-128 97 0
128 -106 -97 0
-130 68 0
-130 104 0
130 -68 -104 0
-132 68 0
-132 104 0
132 -68 -104 0
-134 68 0
-134 104 0
134 -68 -104 0
-144 74 0
-144 104 0
144 -74 -104 0
-147 74 0
-147 104 0
147 -74 -104 0
-454 95 0
-454 97 0
454 -95 -97 0
-150 454 0
-150 100 0
150 -454 -100 0
-455 96 0
-455 99 0
455 -96 -99 0
-154 455 0
-154 70 0
154 -455 -70 0
-456 104 0
-456 106 0
456 -104 -106 0
-156 456 0
-156 100 0
156 -456 -100 0
-158 77 0
-158 100 0
158 -77 -100 0
-160 77 0
-160 100 0
160 -77 -100 0
-164 99 0
-164 100 0
164 -99 -100 0
-167 97 0
-167 101 0
167 -97 -101 0
-170 69 0
-170 104 0
170 -69 -104 0
-173 71 0
-173 106 0
173 -71 -106 0
-175 70 0
-175 98 0
175 -70 -98 0
-178 105 0
-178 96 0
178 -105 -96 0
-180 103 0
-180 105 0
180 -103 -105 0
186 -2 0
186 -100 0
-186 2 100 0
-457 105 0
-457 95 0
457 -105 -95 0
-188 457 0
-188 429 0
188 -457 -429 0
190 -5 0
190 -100 0
-190 5 100 0
-458 106 0
-458 104 0
458 -106 -104 0
-192 458 0
-192 68 0
192 -458 -68 0
-459 2 0
-459 101 0
459 -2 -101 0
-196 459 0
-196 103 0
196 -459 -103 0
199 -103 0
199 -94 0
-199 103 94 0
-460 83 0
-460 81 0
460 -83 -81 0
-201 460 0
-201 79 0
201 -460 -79 0
-205 106 0
-205 104 0
205 -106 -104 0
207 -104 0
207 -98 0
-207 104 98 0
461 -2 0
461 -100 0
-461 2 100 0
209 -461 0
209 -96 0
-209 461 96 0
-462 74 0
-462 206 0
462 -74 -206 0
-212 462 0
-212 208 0
212 -462 -208 0
463 -157 0
463 -116 0
-463 157 116 0
214 -463 0
214 -118 0
-214 463 118 0
464 -159 0
464 -120 0
-464 159 120 0
217 -464 0
217 -121 0
-217 464 121 0
-465 101 0
-465 97 0
465 -101 -97 0
-221 465 0
-221 95 0
221 -465 -95 0
223 -163 0
223 -148 0
-223 163 148 0
-466 96 0
-466 106 0
466 -96 -106 0
-225 466 0
-225 74 0
225 -466 -74 0
-230 105 0
-230 75 0
230 -105 -75 0
-467 307 0
-467 313 0
467 -307 -313 0
-232 467 0
-232 285 0
232 -467 -285 0
-468 83 0
-468 81 0
468 -83 -81 0
-235 468 0
-235 79 0
235 -468 -79 0
469 -169 0
469 -174 0
-469 169 174 0
239 -469 0
239 -176 0
-239 469 176 0
-470 100 0
-470 96 0
470 -100 -96 0
-241 470 0
-241 105 0
241 -470 -105 0
-471 73 0
-471 70 0
471 -73 -70 0
-247 471 0
-247 242 0
247 -471 -242 0
472 -166 0
472 -127 0
-472 166 127 0
249 -472 0
249 -183 0
-249 472 183 0
-473 104 0
-473 99 0
473 -104 -99 0
-251 473 0
-251 74 0
251 -473 -74 0
-253 332 0
-253 306 0
253 -332 -306 0
-256 97 0
-256 106 0
256 -97 -106 0
-258 339 0
-258 281 0
258 -339 -281 0
-261 105 0
-261 103 0
261 -105 -103 0
266 -204 0
266 -233 0
-266 204 233 0
474 -211 0
474 -250 0
-474 211 250 0
268 -474 0
268 -240 0
-268 474 240 0
-475 366 0
-475 335 0
475 -366 -335 0
-270 475 0
-270 391 0
270 -475 -391 0
-476 381 0
-476 397 0
476 -381 -397 0
-272 476 0
-272 395 0
272 -476 -395 0
-477 329 0
-477 387 0
477 -329 -387 0
-274 477 0
-274 405 0
274 -477 -405 0
-478 373 0
-478 401 0
478 -373 -401 0
-276 478 0
-276 409 0
276 -478 -409 0
282 -101 0
282 -97 0
-282 101 97 0
288 -97 0
288 -101 0
-288 97 101 0
291 -104 0
291 -106 0
-291 104 106 0
292 -99 0
292 -106 0
-292 99 106 0
479 -78 0
479 -80 0
-479 78 80 0
294 -479 0
294 -82 0
-294 479 82 0
480 -86 0
480 -89 0
-480 86 89 0
296 -480 0
296 -91 0
-296 480 91 0
481 -87 0
481 -88 0
-481 87 88 0
298 -481 0
298 -91 0
-298 481 91 0
482 -429 0
482 -94 0
-482 429 94 0
300 -482 0
300 -104 0
-300 482 104 0
483 -429 0
483 -94 0
-483 429 94 0
302 -483 0
302 -97 0
-302 483 97 0
308 -92 0
308 -94 0
-308 92 94 0
310 -74 0
310 -100 0
-310 74 100 0
317 -94 0
317 -105 0
-317 94 105 0
318 -105 0
318 -96 0
-318 105 96 0
484 -96 0
484 -105 0
-484 96 105 0
321 -484 0
321 -104 0
-321 484 104 0
485 -99 0
485 -117 0
-485 99 117 0
323 -485 0
323 -72 0
-323 485 72 0
-326 2 0
-326 101 0
326 -2 -101 0
328 -98 0
328 -94 0
-328 98 94 0
486 -106 0
486 -75 0
-486 106 75 0
330 -486 0
330 -325 0
-330 486 325 0
487 -117 0
487 -73 0
-487 117 73 0
333 -487 0
333 -71 0
-333 487 71 0
488 -97 0
488 -105 0
-488 97 105 0
336 -488 0
336 -75 0
-336 488 75 0
-489 5 0
-489 97 0
489 -5 -97 0
-338 489 0
-338 95 0
338 -489 -95 0
490 -83 0
490 -81 0
-490 83 81 0
340 -490 0
340 -78 0
-340 490 78 0
491 -97 0
491 -105 0
-491 97 105 0
343 -491 0
343 -99 0
-343 491 99 0
492 -97 0
492 -106 0
-492 97 106 0
345 -492 0
345 -104 0
-345 492 104 0
493 -5 0
493 -100 0
-493 5 100 0
347 -493 0
347 -106 0
-347 493 106 0
349 -2 0
349 -101 0
-349 2 101 0
352 -2 0
352 -101 0
-352 2 101 0
494 -80 0
494 -78 0
-494 80 78 0
357 -494 0
357 -354 0
-357 494 354 0
359 -153 0
359 -139 0
-359 153 139 0
361 -106 0
361 -104 0
-361 106 104 0
-495 101 0
-495 97 0
495 -101 -97 0
-363 495 0
-363 105 0
363 -495 -105 0
-365 295 0
-365 297 0
365 -295 -297 0
496 -94 0
496 -75 0
-496 94 75 0
367 -496 0
367 -362 0
-367 496 362 0
497 -5 0
497 -100 0
-497 5 100 0
370 -497 0
370 -106 0
-370 497 106 0
-372 293 0
-372 114 0
372 -293 -114 0
498 -5 0
498 -100 0
-498 5 100 0
374 -498 0
374 -96 0
-374 498 96 0
377 -220 0
377 -197 0
-377 220 197 0
-379 2 0
-379 101 0
379 -2 -101 0
499 -105 0
499 -75 0
-499 105 75 0
382 -499 0
382 -378 0
-382 499 378 0
500 -141 0
500 -5 0
-500 141 5 0
383 -500 0
383 -96 0
-383 500 96 0
501 -97 0
501 -98 0
-501 97 98 0
388 -501 0
388 -75 0
-388 501 75 0
392 -96 0
392 -105 0
-392 96 105 0
396 -96 0
396 -105 0
-396 96 105 0
502 -106 0
502 -98 0
-502 106 98 0
398 -502 0
398 -75 0
-398 502 75 0
400 -187 0
400 -229 0
-400 187 229 0
403 -246 0
403 -264 0
-403 246 264 0
407 -260 0
407 -267 0
-407 260 267 0
-503 279 0
-503 280 0
503 -279 -280 0
-411 503 0
-411 278 0
411 -503 -278 0
-504 101 0
-504 96 0
504 -101 -96 0
-412 504 0
-412 106 0
412 -504 -106 0
-505 100 0
-505 96 0
505 -100 -96 0
-413 505 0
-413 106 0
413 -505 -106 0
-506 100 0
-506 96 0
506 -100 -96 0
-414 506 0
-414 106 0
414 -506 -106 0
-507 97 0
-507 106 0
507 -97 -106 0
-415 507 0
-415 103 0
415 -507 -103 0
-508 97 0
-508 106 0
508 -97 -106 0
-416 508 0
-416 103 0
416 -508 -103 0
-509 100 0
-509 97 0
509 -100 -97 0
-417 509 0
-417 106 0
417 -509 -106 0
-510 101 0
-510 97 0
510 -101 -97 0
-418 510 0
-418 106 0
418 -510 -106 0
-511 100 0
-511 97 0
511 -100 -97 0
-419 511 0
-419 106 0
419 -511 -106 0
-512 97 0
-512 106 0
512 -97 -106 0
-420 512 0
-420 103 0
420 -512 -103 0
-513 100 0
-513 97 0
513 -100 -97 0
-421 513 0
-421 106 0
421 -513 -106 0
-514 98 0
-514 117 0
514 -98 -117 0
-423 514 0
-423 70 0
423 -514 -70 0
-515 96 0
-515 105 0
515 -96 -105 0
-424 515 0
-424 103 0
424 -515 -103 0
-516 101 0
-516 96 0
516 -101 -96 0
-425 516 0
-425 105 0
425 -516 -105 0
-427 105 0
-427 103 0
427 -105 -103 0
-517 105 0
-517 103 0
517 -105 -103 0
-428 517 0
-428 95 0
428 -517 -95 0
-518 301 0
-518 287 0
518 -301 -287 0
-431 518 0
-431 309 0
431 -518 -309 0
-519 311 0
-519 284 0
519 -311 -284 0
-433 519 0
-433 312 0
433 -519 -312 0
434 -103 0
434 -94 0
-434 103 94 0
-520 316 0
-520 289 0
520 -316 -289 0
-436 520 0
-436 305 0
436 -520 -305 0
-521 105 0
-521 103 0
521 -105 -103 0
-438 521 0
-438 99 0
438 -521 -99 0
-522 324 0
-522 5 0
522 -324 -5 0
-439 522 0
-439 96 0
439 -522 -96 0
442 -155 0
442 -179 0
-442 155 179 0
523 -117 0
523 -72 0
-523 117 72 0
444 -523 0
444 -71 0
-444 523 71 0
-524 5 0
-524 100 0
524 -5 -100 0
-445 524 0
-445 96 0
445 -524 -96 0
446 -112 0
446 -181 0
-446 112 181 0
